! B3LYP D4 def2-TZVP Opt freq

%pal
  nprocs=8
end

%geom
   MaxIter 300
end

%maxcore 300

* xyz 0 1
C   -3.087780   12.373400   -1.829820
C   -2.326280   11.054400   -1.829820
C   -1.276320   11.074500   -0.726769
C   -0.457484   12.354600   -0.828530
*                                    